Minizinc_Model/ver2/linkage.fzn
array [1..2] of int: X_INTRODUCED_43_ = [1,-1];
array [1..7] of int: X_INTRODUCED_50_ = [81,87,0,87,91,87,87];
array [1..147] of int: X_INTRODUCED_52_ = [83,83,83,83,83,84,83,83,83,83,83,83,83,83,78,84,80,86,83,83,83,0,0,0,0,0,18,0,0,0,0,7,0,0,0,88,18,87,12,0,0,0,87,87,87,87,87,94,87,87,87,87,87,87,87,87,91,94,3,84,87,87,87,0,0,0,0,0,18,0,0,0,0,7,0,0,0,88,18,87,12,0,0,0,88,88,88,88,88,78,88,88,88,88,84,88,88,88,0,78,88,84,88,88,88,0,0,0,0,0,18,0,0,0,0,7,0,0,0,88,18,87,12,0,0,0,0,0,0,0,0,18,0,0,0,0,7,0,0,0,88,18,87,12,0,0,0];
array [1..441] of int: X_INTRODUCED_56_ = [87,0,88,100,100,100,100,100,100,100,100,100,100,100,100,100,100,100,100,100,100,87,0,88,100,100,100,100,100,100,100,100,100,100,100,100,100,100,100,100,100,100,87,0,88,100,100,100,100,100,100,100,100,100,100,100,100,100,100,100,100,100,100,87,0,88,100,100,100,100,100,100,100,100,100,100,100,100,100,100,100,100,100,100,87,0,88,100,100,100,100,100,100,100,100,100,100,100,100,100,100,100,100,100,100,94,18,78,100,100,100,100,100,100,100,100,100,100,100,100,100,100,100,100,100,100,87,0,88,100,100,100,100,100,100,100,100,100,100,100,100,100,100,100,100,100,100,87,0,88,100,100,100,100,100,100,100,100,100,100,100,100,100,100,100,100,100,100,87,0,88,100,100,100,100,100,100,100,100,100,100,100,100,100,100,100,100,100,100,87,0,88,100,100,100,100,100,100,100,100,100,100,100,100,100,100,100,100,100,100,87,7,84,100,100,100,100,100,100,100,100,100,100,100,100,100,100,100,100,100,100,87,0,88,100,100,100,100,100,100,100,100,100,100,100,100,100,100,100,100,100,100,87,0,88,100,100,100,100,100,100,100,100,100,100,100,100,100,100,100,100,100,100,87,0,88,100,100,100,100,100,100,100,100,100,100,100,100,100,100,100,100,100,100,91,88,0,100,100,100,100,100,100,100,100,100,100,100,100,100,100,100,100,100,100,94,18,78,100,100,100,100,100,100,100,100,100,100,100,100,100,100,100,100,100,100,3,87,88,100,100,100,100,100,100,100,100,100,100,100,100,100,100,100,100,100,100,84,12,84,100,100,100,100,100,100,100,100,100,100,100,100,100,100,100,100,100,100,87,0,88,100,100,100,100,100,100,100,100,100,100,100,100,100,100,100,100,100,100,87,0,88,100,100,100,100,100,100,100,100,100,100,100,100,100,100,100,100,100,100,87,0,88,100,100,100,100,100,100,100,100,100,100,100,100,100,100,100,100,100,100];
array [1..7] of int: X_INTRODUCED_59_ = [83,0,87,0,88,0,0];
array [1..7] of int: X_INTRODUCED_65_ = [78,88,91,88,0,88,88];
array [1..10] of int: X_INTRODUCED_72_ = [1,-1,-1,-1,-1,-1,-1,-1,-1,-1];
var 1..7: X_INTRODUCED_0_;
var 1..7: X_INTRODUCED_1_;
var 1..7: X_INTRODUCED_2_;
var 1..21: X_INTRODUCED_3_;
var 1..21: X_INTRODUCED_4_;
var 1..21: X_INTRODUCED_5_;
var 1..21: X_INTRODUCED_6_;
var 1..21: X_INTRODUCED_7_;
var 1..21: X_INTRODUCED_8_;
var 1..21: X_INTRODUCED_9_;
var 1..21: X_INTRODUCED_10_;
var 1..21: X_INTRODUCED_11_;
var 1..21: X_INTRODUCED_12_;
var 1..21: X_INTRODUCED_13_;
var 1..21: X_INTRODUCED_14_;
var 1..21: X_INTRODUCED_15_;
var 1..21: X_INTRODUCED_16_;
var 1..21: X_INTRODUCED_17_;
var 1..21: X_INTRODUCED_18_;
var 1..21: X_INTRODUCED_19_;
var 1..21: X_INTRODUCED_20_;
var 1..21: X_INTRODUCED_21_;
var 1..21: X_INTRODUCED_22_;
var 1..21: X_INTRODUCED_23_;
var 1..21: X_INTRODUCED_24_;
var 1..21: X_INTRODUCED_25_;
var 1..21: X_INTRODUCED_26_;
var 1..21: X_INTRODUCED_27_;
var 1..21: X_INTRODUCED_28_;
var 1..21: X_INTRODUCED_29_;
var 1..21: X_INTRODUCED_30_;
var 0..852: total_score:: output_var:: is_defined_var;
var 1..21: X_INTRODUCED_44_ ::var_is_introduced :: is_defined_var;
var 1..21: X_INTRODUCED_46_ ::var_is_introduced :: is_defined_var;
var 1..21: X_INTRODUCED_48_ ::var_is_introduced :: is_defined_var;
var 0..91: X_INTRODUCED_51_ ::var_is_introduced :: is_defined_var;
var 1..147: X_INTRODUCED_54_ ::var_is_introduced :: is_defined_var;
var 0..94: X_INTRODUCED_55_ ::var_is_introduced :: is_defined_var;
var 1..421: X_INTRODUCED_57_ ::var_is_introduced :: is_defined_var;
var 0..100: X_INTRODUCED_58_ ::var_is_introduced :: is_defined_var;
var 0..88: X_INTRODUCED_60_ ::var_is_introduced :: is_defined_var;
var 1..147: X_INTRODUCED_61_ ::var_is_introduced :: is_defined_var;
var 0..94: X_INTRODUCED_62_ ::var_is_introduced :: is_defined_var;
var 2..422: X_INTRODUCED_63_ ::var_is_introduced :: is_defined_var;
var 0..100: X_INTRODUCED_64_ ::var_is_introduced :: is_defined_var;
var 0..91: X_INTRODUCED_66_ ::var_is_introduced :: is_defined_var;
var 1..147: X_INTRODUCED_67_ ::var_is_introduced :: is_defined_var;
var 0..94: X_INTRODUCED_68_ ::var_is_introduced :: is_defined_var;
var 3..423: X_INTRODUCED_69_ ::var_is_introduced :: is_defined_var;
var 0..100: X_INTRODUCED_70_ ::var_is_introduced :: is_defined_var;
array [1..3] of var int: x:: output_array([1..3]) = [X_INTRODUCED_0_,X_INTRODUCED_1_,X_INTRODUCED_2_];
array [1..7] of var int: y:: output_array([1..7]) = [X_INTRODUCED_3_,X_INTRODUCED_4_,X_INTRODUCED_5_,X_INTRODUCED_6_,X_INTRODUCED_7_,X_INTRODUCED_8_,X_INTRODUCED_9_];
array [1..21] of var int: z:: output_array([1..21]) = [X_INTRODUCED_10_,X_INTRODUCED_11_,X_INTRODUCED_12_,X_INTRODUCED_13_,X_INTRODUCED_14_,X_INTRODUCED_15_,X_INTRODUCED_16_,X_INTRODUCED_17_,X_INTRODUCED_18_,X_INTRODUCED_19_,X_INTRODUCED_20_,X_INTRODUCED_21_,X_INTRODUCED_22_,X_INTRODUCED_23_,X_INTRODUCED_24_,X_INTRODUCED_25_,X_INTRODUCED_26_,X_INTRODUCED_27_,X_INTRODUCED_28_,X_INTRODUCED_29_,X_INTRODUCED_30_];
array [1..9] of var int: scores:: output_array([1..3,1..3]) = [X_INTRODUCED_51_,X_INTRODUCED_60_,X_INTRODUCED_66_,X_INTRODUCED_55_,X_INTRODUCED_62_,X_INTRODUCED_68_,X_INTRODUCED_58_,X_INTRODUCED_64_,X_INTRODUCED_70_];
constraint int_lin_ne(X_INTRODUCED_43_,[X_INTRODUCED_0_,X_INTRODUCED_1_],0);
constraint int_lin_ne(X_INTRODUCED_43_,[X_INTRODUCED_0_,X_INTRODUCED_2_],0);
constraint int_lin_ne(X_INTRODUCED_43_,[X_INTRODUCED_1_,X_INTRODUCED_2_],0);
constraint int_lin_ne(X_INTRODUCED_43_,[X_INTRODUCED_3_,X_INTRODUCED_4_],0);
constraint int_lin_ne(X_INTRODUCED_43_,[X_INTRODUCED_3_,X_INTRODUCED_5_],0);
constraint int_lin_ne(X_INTRODUCED_43_,[X_INTRODUCED_3_,X_INTRODUCED_6_],0);
constraint int_lin_ne(X_INTRODUCED_43_,[X_INTRODUCED_3_,X_INTRODUCED_7_],0);
constraint int_lin_ne(X_INTRODUCED_43_,[X_INTRODUCED_3_,X_INTRODUCED_8_],0);
constraint int_lin_ne(X_INTRODUCED_43_,[X_INTRODUCED_3_,X_INTRODUCED_9_],0);
constraint int_lin_ne(X_INTRODUCED_43_,[X_INTRODUCED_4_,X_INTRODUCED_5_],0);
constraint int_lin_ne(X_INTRODUCED_43_,[X_INTRODUCED_4_,X_INTRODUCED_6_],0);
constraint int_lin_ne(X_INTRODUCED_43_,[X_INTRODUCED_4_,X_INTRODUCED_7_],0);
constraint int_lin_ne(X_INTRODUCED_43_,[X_INTRODUCED_4_,X_INTRODUCED_8_],0);
constraint int_lin_ne(X_INTRODUCED_43_,[X_INTRODUCED_4_,X_INTRODUCED_9_],0);
constraint int_lin_ne(X_INTRODUCED_43_,[X_INTRODUCED_5_,X_INTRODUCED_6_],0);
constraint int_lin_ne(X_INTRODUCED_43_,[X_INTRODUCED_5_,X_INTRODUCED_7_],0);
constraint int_lin_ne(X_INTRODUCED_43_,[X_INTRODUCED_5_,X_INTRODUCED_8_],0);
constraint int_lin_ne(X_INTRODUCED_43_,[X_INTRODUCED_5_,X_INTRODUCED_9_],0);
constraint int_lin_ne(X_INTRODUCED_43_,[X_INTRODUCED_6_,X_INTRODUCED_7_],0);
constraint int_lin_ne(X_INTRODUCED_43_,[X_INTRODUCED_6_,X_INTRODUCED_8_],0);
constraint int_lin_ne(X_INTRODUCED_43_,[X_INTRODUCED_6_,X_INTRODUCED_9_],0);
constraint int_lin_ne(X_INTRODUCED_43_,[X_INTRODUCED_7_,X_INTRODUCED_8_],0);
constraint int_lin_ne(X_INTRODUCED_43_,[X_INTRODUCED_7_,X_INTRODUCED_9_],0);
constraint int_lin_ne(X_INTRODUCED_43_,[X_INTRODUCED_8_,X_INTRODUCED_9_],0);
constraint int_lin_ne(X_INTRODUCED_43_,[X_INTRODUCED_10_,X_INTRODUCED_11_],0);
constraint int_lin_ne(X_INTRODUCED_43_,[X_INTRODUCED_10_,X_INTRODUCED_12_],0);
constraint int_lin_ne(X_INTRODUCED_43_,[X_INTRODUCED_10_,X_INTRODUCED_13_],0);
constraint int_lin_ne(X_INTRODUCED_43_,[X_INTRODUCED_10_,X_INTRODUCED_14_],0);
constraint int_lin_ne(X_INTRODUCED_43_,[X_INTRODUCED_10_,X_INTRODUCED_15_],0);
constraint int_lin_ne(X_INTRODUCED_43_,[X_INTRODUCED_10_,X_INTRODUCED_16_],0);
constraint int_lin_ne(X_INTRODUCED_43_,[X_INTRODUCED_10_,X_INTRODUCED_17_],0);
constraint int_lin_ne(X_INTRODUCED_43_,[X_INTRODUCED_10_,X_INTRODUCED_18_],0);
constraint int_lin_ne(X_INTRODUCED_43_,[X_INTRODUCED_10_,X_INTRODUCED_19_],0);
constraint int_lin_ne(X_INTRODUCED_43_,[X_INTRODUCED_10_,X_INTRODUCED_20_],0);
constraint int_lin_ne(X_INTRODUCED_43_,[X_INTRODUCED_10_,X_INTRODUCED_21_],0);
constraint int_lin_ne(X_INTRODUCED_43_,[X_INTRODUCED_10_,X_INTRODUCED_22_],0);
constraint int_lin_ne(X_INTRODUCED_43_,[X_INTRODUCED_10_,X_INTRODUCED_23_],0);
constraint int_lin_ne(X_INTRODUCED_43_,[X_INTRODUCED_10_,X_INTRODUCED_24_],0);
constraint int_lin_ne(X_INTRODUCED_43_,[X_INTRODUCED_10_,X_INTRODUCED_25_],0);
constraint int_lin_ne(X_INTRODUCED_43_,[X_INTRODUCED_10_,X_INTRODUCED_26_],0);
constraint int_lin_ne(X_INTRODUCED_43_,[X_INTRODUCED_10_,X_INTRODUCED_27_],0);
constraint int_lin_ne(X_INTRODUCED_43_,[X_INTRODUCED_10_,X_INTRODUCED_28_],0);
constraint int_lin_ne(X_INTRODUCED_43_,[X_INTRODUCED_10_,X_INTRODUCED_29_],0);
constraint int_lin_ne(X_INTRODUCED_43_,[X_INTRODUCED_10_,X_INTRODUCED_30_],0);
constraint int_lin_ne(X_INTRODUCED_43_,[X_INTRODUCED_11_,X_INTRODUCED_12_],0);
constraint int_lin_ne(X_INTRODUCED_43_,[X_INTRODUCED_11_,X_INTRODUCED_13_],0);
constraint int_lin_ne(X_INTRODUCED_43_,[X_INTRODUCED_11_,X_INTRODUCED_14_],0);
constraint int_lin_ne(X_INTRODUCED_43_,[X_INTRODUCED_11_,X_INTRODUCED_15_],0);
constraint int_lin_ne(X_INTRODUCED_43_,[X_INTRODUCED_11_,X_INTRODUCED_16_],0);
constraint int_lin_ne(X_INTRODUCED_43_,[X_INTRODUCED_11_,X_INTRODUCED_17_],0);
constraint int_lin_ne(X_INTRODUCED_43_,[X_INTRODUCED_11_,X_INTRODUCED_18_],0);
constraint int_lin_ne(X_INTRODUCED_43_,[X_INTRODUCED_11_,X_INTRODUCED_19_],0);
constraint int_lin_ne(X_INTRODUCED_43_,[X_INTRODUCED_11_,X_INTRODUCED_20_],0);
constraint int_lin_ne(X_INTRODUCED_43_,[X_INTRODUCED_11_,X_INTRODUCED_21_],0);
constraint int_lin_ne(X_INTRODUCED_43_,[X_INTRODUCED_11_,X_INTRODUCED_22_],0);
constraint int_lin_ne(X_INTRODUCED_43_,[X_INTRODUCED_11_,X_INTRODUCED_23_],0);
constraint int_lin_ne(X_INTRODUCED_43_,[X_INTRODUCED_11_,X_INTRODUCED_24_],0);
constraint int_lin_ne(X_INTRODUCED_43_,[X_INTRODUCED_11_,X_INTRODUCED_25_],0);
constraint int_lin_ne(X_INTRODUCED_43_,[X_INTRODUCED_11_,X_INTRODUCED_26_],0);
constraint int_lin_ne(X_INTRODUCED_43_,[X_INTRODUCED_11_,X_INTRODUCED_27_],0);
constraint int_lin_ne(X_INTRODUCED_43_,[X_INTRODUCED_11_,X_INTRODUCED_28_],0);
constraint int_lin_ne(X_INTRODUCED_43_,[X_INTRODUCED_11_,X_INTRODUCED_29_],0);
constraint int_lin_ne(X_INTRODUCED_43_,[X_INTRODUCED_11_,X_INTRODUCED_30_],0);
constraint int_lin_ne(X_INTRODUCED_43_,[X_INTRODUCED_12_,X_INTRODUCED_13_],0);
constraint int_lin_ne(X_INTRODUCED_43_,[X_INTRODUCED_12_,X_INTRODUCED_14_],0);
constraint int_lin_ne(X_INTRODUCED_43_,[X_INTRODUCED_12_,X_INTRODUCED_15_],0);
constraint int_lin_ne(X_INTRODUCED_43_,[X_INTRODUCED_12_,X_INTRODUCED_16_],0);
constraint int_lin_ne(X_INTRODUCED_43_,[X_INTRODUCED_12_,X_INTRODUCED_17_],0);
constraint int_lin_ne(X_INTRODUCED_43_,[X_INTRODUCED_12_,X_INTRODUCED_18_],0);
constraint int_lin_ne(X_INTRODUCED_43_,[X_INTRODUCED_12_,X_INTRODUCED_19_],0);
constraint int_lin_ne(X_INTRODUCED_43_,[X_INTRODUCED_12_,X_INTRODUCED_20_],0);
constraint int_lin_ne(X_INTRODUCED_43_,[X_INTRODUCED_12_,X_INTRODUCED_21_],0);
constraint int_lin_ne(X_INTRODUCED_43_,[X_INTRODUCED_12_,X_INTRODUCED_22_],0);
constraint int_lin_ne(X_INTRODUCED_43_,[X_INTRODUCED_12_,X_INTRODUCED_23_],0);
constraint int_lin_ne(X_INTRODUCED_43_,[X_INTRODUCED_12_,X_INTRODUCED_24_],0);
constraint int_lin_ne(X_INTRODUCED_43_,[X_INTRODUCED_12_,X_INTRODUCED_25_],0);
constraint int_lin_ne(X_INTRODUCED_43_,[X_INTRODUCED_12_,X_INTRODUCED_26_],0);
constraint int_lin_ne(X_INTRODUCED_43_,[X_INTRODUCED_12_,X_INTRODUCED_27_],0);
constraint int_lin_ne(X_INTRODUCED_43_,[X_INTRODUCED_12_,X_INTRODUCED_28_],0);
constraint int_lin_ne(X_INTRODUCED_43_,[X_INTRODUCED_12_,X_INTRODUCED_29_],0);
constraint int_lin_ne(X_INTRODUCED_43_,[X_INTRODUCED_12_,X_INTRODUCED_30_],0);
constraint int_lin_ne(X_INTRODUCED_43_,[X_INTRODUCED_13_,X_INTRODUCED_14_],0);
constraint int_lin_ne(X_INTRODUCED_43_,[X_INTRODUCED_13_,X_INTRODUCED_15_],0);
constraint int_lin_ne(X_INTRODUCED_43_,[X_INTRODUCED_13_,X_INTRODUCED_16_],0);
constraint int_lin_ne(X_INTRODUCED_43_,[X_INTRODUCED_13_,X_INTRODUCED_17_],0);
constraint int_lin_ne(X_INTRODUCED_43_,[X_INTRODUCED_13_,X_INTRODUCED_18_],0);
constraint int_lin_ne(X_INTRODUCED_43_,[X_INTRODUCED_13_,X_INTRODUCED_19_],0);
constraint int_lin_ne(X_INTRODUCED_43_,[X_INTRODUCED_13_,X_INTRODUCED_20_],0);
constraint int_lin_ne(X_INTRODUCED_43_,[X_INTRODUCED_13_,X_INTRODUCED_21_],0);
constraint int_lin_ne(X_INTRODUCED_43_,[X_INTRODUCED_13_,X_INTRODUCED_22_],0);
constraint int_lin_ne(X_INTRODUCED_43_,[X_INTRODUCED_13_,X_INTRODUCED_23_],0);
constraint int_lin_ne(X_INTRODUCED_43_,[X_INTRODUCED_13_,X_INTRODUCED_24_],0);
constraint int_lin_ne(X_INTRODUCED_43_,[X_INTRODUCED_13_,X_INTRODUCED_25_],0);
constraint int_lin_ne(X_INTRODUCED_43_,[X_INTRODUCED_13_,X_INTRODUCED_26_],0);
constraint int_lin_ne(X_INTRODUCED_43_,[X_INTRODUCED_13_,X_INTRODUCED_27_],0);
constraint int_lin_ne(X_INTRODUCED_43_,[X_INTRODUCED_13_,X_INTRODUCED_28_],0);
constraint int_lin_ne(X_INTRODUCED_43_,[X_INTRODUCED_13_,X_INTRODUCED_29_],0);
constraint int_lin_ne(X_INTRODUCED_43_,[X_INTRODUCED_13_,X_INTRODUCED_30_],0);
constraint int_lin_ne(X_INTRODUCED_43_,[X_INTRODUCED_14_,X_INTRODUCED_15_],0);
constraint int_lin_ne(X_INTRODUCED_43_,[X_INTRODUCED_14_,X_INTRODUCED_16_],0);
constraint int_lin_ne(X_INTRODUCED_43_,[X_INTRODUCED_14_,X_INTRODUCED_17_],0);
constraint int_lin_ne(X_INTRODUCED_43_,[X_INTRODUCED_14_,X_INTRODUCED_18_],0);
constraint int_lin_ne(X_INTRODUCED_43_,[X_INTRODUCED_14_,X_INTRODUCED_19_],0);
constraint int_lin_ne(X_INTRODUCED_43_,[X_INTRODUCED_14_,X_INTRODUCED_20_],0);
constraint int_lin_ne(X_INTRODUCED_43_,[X_INTRODUCED_14_,X_INTRODUCED_21_],0);
constraint int_lin_ne(X_INTRODUCED_43_,[X_INTRODUCED_14_,X_INTRODUCED_22_],0);
constraint int_lin_ne(X_INTRODUCED_43_,[X_INTRODUCED_14_,X_INTRODUCED_23_],0);
constraint int_lin_ne(X_INTRODUCED_43_,[X_INTRODUCED_14_,X_INTRODUCED_24_],0);
constraint int_lin_ne(X_INTRODUCED_43_,[X_INTRODUCED_14_,X_INTRODUCED_25_],0);
constraint int_lin_ne(X_INTRODUCED_43_,[X_INTRODUCED_14_,X_INTRODUCED_26_],0);
constraint int_lin_ne(X_INTRODUCED_43_,[X_INTRODUCED_14_,X_INTRODUCED_27_],0);
constraint int_lin_ne(X_INTRODUCED_43_,[X_INTRODUCED_14_,X_INTRODUCED_28_],0);
constraint int_lin_ne(X_INTRODUCED_43_,[X_INTRODUCED_14_,X_INTRODUCED_29_],0);
constraint int_lin_ne(X_INTRODUCED_43_,[X_INTRODUCED_14_,X_INTRODUCED_30_],0);
constraint int_lin_ne(X_INTRODUCED_43_,[X_INTRODUCED_15_,X_INTRODUCED_16_],0);
constraint int_lin_ne(X_INTRODUCED_43_,[X_INTRODUCED_15_,X_INTRODUCED_17_],0);
constraint int_lin_ne(X_INTRODUCED_43_,[X_INTRODUCED_15_,X_INTRODUCED_18_],0);
constraint int_lin_ne(X_INTRODUCED_43_,[X_INTRODUCED_15_,X_INTRODUCED_19_],0);
constraint int_lin_ne(X_INTRODUCED_43_,[X_INTRODUCED_15_,X_INTRODUCED_20_],0);
constraint int_lin_ne(X_INTRODUCED_43_,[X_INTRODUCED_15_,X_INTRODUCED_21_],0);
constraint int_lin_ne(X_INTRODUCED_43_,[X_INTRODUCED_15_,X_INTRODUCED_22_],0);
constraint int_lin_ne(X_INTRODUCED_43_,[X_INTRODUCED_15_,X_INTRODUCED_23_],0);
constraint int_lin_ne(X_INTRODUCED_43_,[X_INTRODUCED_15_,X_INTRODUCED_24_],0);
constraint int_lin_ne(X_INTRODUCED_43_,[X_INTRODUCED_15_,X_INTRODUCED_25_],0);
constraint int_lin_ne(X_INTRODUCED_43_,[X_INTRODUCED_15_,X_INTRODUCED_26_],0);
constraint int_lin_ne(X_INTRODUCED_43_,[X_INTRODUCED_15_,X_INTRODUCED_27_],0);
constraint int_lin_ne(X_INTRODUCED_43_,[X_INTRODUCED_15_,X_INTRODUCED_28_],0);
constraint int_lin_ne(X_INTRODUCED_43_,[X_INTRODUCED_15_,X_INTRODUCED_29_],0);
constraint int_lin_ne(X_INTRODUCED_43_,[X_INTRODUCED_15_,X_INTRODUCED_30_],0);
constraint int_lin_ne(X_INTRODUCED_43_,[X_INTRODUCED_16_,X_INTRODUCED_17_],0);
constraint int_lin_ne(X_INTRODUCED_43_,[X_INTRODUCED_16_,X_INTRODUCED_18_],0);
constraint int_lin_ne(X_INTRODUCED_43_,[X_INTRODUCED_16_,X_INTRODUCED_19_],0);
constraint int_lin_ne(X_INTRODUCED_43_,[X_INTRODUCED_16_,X_INTRODUCED_20_],0);
constraint int_lin_ne(X_INTRODUCED_43_,[X_INTRODUCED_16_,X_INTRODUCED_21_],0);
constraint int_lin_ne(X_INTRODUCED_43_,[X_INTRODUCED_16_,X_INTRODUCED_22_],0);
constraint int_lin_ne(X_INTRODUCED_43_,[X_INTRODUCED_16_,X_INTRODUCED_23_],0);
constraint int_lin_ne(X_INTRODUCED_43_,[X_INTRODUCED_16_,X_INTRODUCED_24_],0);
constraint int_lin_ne(X_INTRODUCED_43_,[X_INTRODUCED_16_,X_INTRODUCED_25_],0);
constraint int_lin_ne(X_INTRODUCED_43_,[X_INTRODUCED_16_,X_INTRODUCED_26_],0);
constraint int_lin_ne(X_INTRODUCED_43_,[X_INTRODUCED_16_,X_INTRODUCED_27_],0);
constraint int_lin_ne(X_INTRODUCED_43_,[X_INTRODUCED_16_,X_INTRODUCED_28_],0);
constraint int_lin_ne(X_INTRODUCED_43_,[X_INTRODUCED_16_,X_INTRODUCED_29_],0);
constraint int_lin_ne(X_INTRODUCED_43_,[X_INTRODUCED_16_,X_INTRODUCED_30_],0);
constraint int_lin_ne(X_INTRODUCED_43_,[X_INTRODUCED_17_,X_INTRODUCED_18_],0);
constraint int_lin_ne(X_INTRODUCED_43_,[X_INTRODUCED_17_,X_INTRODUCED_19_],0);
constraint int_lin_ne(X_INTRODUCED_43_,[X_INTRODUCED_17_,X_INTRODUCED_20_],0);
constraint int_lin_ne(X_INTRODUCED_43_,[X_INTRODUCED_17_,X_INTRODUCED_21_],0);
constraint int_lin_ne(X_INTRODUCED_43_,[X_INTRODUCED_17_,X_INTRODUCED_22_],0);
constraint int_lin_ne(X_INTRODUCED_43_,[X_INTRODUCED_17_,X_INTRODUCED_23_],0);
constraint int_lin_ne(X_INTRODUCED_43_,[X_INTRODUCED_17_,X_INTRODUCED_24_],0);
constraint int_lin_ne(X_INTRODUCED_43_,[X_INTRODUCED_17_,X_INTRODUCED_25_],0);
constraint int_lin_ne(X_INTRODUCED_43_,[X_INTRODUCED_17_,X_INTRODUCED_26_],0);
constraint int_lin_ne(X_INTRODUCED_43_,[X_INTRODUCED_17_,X_INTRODUCED_27_],0);
constraint int_lin_ne(X_INTRODUCED_43_,[X_INTRODUCED_17_,X_INTRODUCED_28_],0);
constraint int_lin_ne(X_INTRODUCED_43_,[X_INTRODUCED_17_,X_INTRODUCED_29_],0);
constraint int_lin_ne(X_INTRODUCED_43_,[X_INTRODUCED_17_,X_INTRODUCED_30_],0);
constraint int_lin_ne(X_INTRODUCED_43_,[X_INTRODUCED_18_,X_INTRODUCED_19_],0);
constraint int_lin_ne(X_INTRODUCED_43_,[X_INTRODUCED_18_,X_INTRODUCED_20_],0);
constraint int_lin_ne(X_INTRODUCED_43_,[X_INTRODUCED_18_,X_INTRODUCED_21_],0);
constraint int_lin_ne(X_INTRODUCED_43_,[X_INTRODUCED_18_,X_INTRODUCED_22_],0);
constraint int_lin_ne(X_INTRODUCED_43_,[X_INTRODUCED_18_,X_INTRODUCED_23_],0);
constraint int_lin_ne(X_INTRODUCED_43_,[X_INTRODUCED_18_,X_INTRODUCED_24_],0);
constraint int_lin_ne(X_INTRODUCED_43_,[X_INTRODUCED_18_,X_INTRODUCED_25_],0);
constraint int_lin_ne(X_INTRODUCED_43_,[X_INTRODUCED_18_,X_INTRODUCED_26_],0);
constraint int_lin_ne(X_INTRODUCED_43_,[X_INTRODUCED_18_,X_INTRODUCED_27_],0);
constraint int_lin_ne(X_INTRODUCED_43_,[X_INTRODUCED_18_,X_INTRODUCED_28_],0);
constraint int_lin_ne(X_INTRODUCED_43_,[X_INTRODUCED_18_,X_INTRODUCED_29_],0);
constraint int_lin_ne(X_INTRODUCED_43_,[X_INTRODUCED_18_,X_INTRODUCED_30_],0);
constraint int_lin_ne(X_INTRODUCED_43_,[X_INTRODUCED_19_,X_INTRODUCED_20_],0);
constraint int_lin_ne(X_INTRODUCED_43_,[X_INTRODUCED_19_,X_INTRODUCED_21_],0);
constraint int_lin_ne(X_INTRODUCED_43_,[X_INTRODUCED_19_,X_INTRODUCED_22_],0);
constraint int_lin_ne(X_INTRODUCED_43_,[X_INTRODUCED_19_,X_INTRODUCED_23_],0);
constraint int_lin_ne(X_INTRODUCED_43_,[X_INTRODUCED_19_,X_INTRODUCED_24_],0);
constraint int_lin_ne(X_INTRODUCED_43_,[X_INTRODUCED_19_,X_INTRODUCED_25_],0);
constraint int_lin_ne(X_INTRODUCED_43_,[X_INTRODUCED_19_,X_INTRODUCED_26_],0);
constraint int_lin_ne(X_INTRODUCED_43_,[X_INTRODUCED_19_,X_INTRODUCED_27_],0);
constraint int_lin_ne(X_INTRODUCED_43_,[X_INTRODUCED_19_,X_INTRODUCED_28_],0);
constraint int_lin_ne(X_INTRODUCED_43_,[X_INTRODUCED_19_,X_INTRODUCED_29_],0);
constraint int_lin_ne(X_INTRODUCED_43_,[X_INTRODUCED_19_,X_INTRODUCED_30_],0);
constraint int_lin_ne(X_INTRODUCED_43_,[X_INTRODUCED_20_,X_INTRODUCED_21_],0);
constraint int_lin_ne(X_INTRODUCED_43_,[X_INTRODUCED_20_,X_INTRODUCED_22_],0);
constraint int_lin_ne(X_INTRODUCED_43_,[X_INTRODUCED_20_,X_INTRODUCED_23_],0);
constraint int_lin_ne(X_INTRODUCED_43_,[X_INTRODUCED_20_,X_INTRODUCED_24_],0);
constraint int_lin_ne(X_INTRODUCED_43_,[X_INTRODUCED_20_,X_INTRODUCED_25_],0);
constraint int_lin_ne(X_INTRODUCED_43_,[X_INTRODUCED_20_,X_INTRODUCED_26_],0);
constraint int_lin_ne(X_INTRODUCED_43_,[X_INTRODUCED_20_,X_INTRODUCED_27_],0);
constraint int_lin_ne(X_INTRODUCED_43_,[X_INTRODUCED_20_,X_INTRODUCED_28_],0);
constraint int_lin_ne(X_INTRODUCED_43_,[X_INTRODUCED_20_,X_INTRODUCED_29_],0);
constraint int_lin_ne(X_INTRODUCED_43_,[X_INTRODUCED_20_,X_INTRODUCED_30_],0);
constraint int_lin_ne(X_INTRODUCED_43_,[X_INTRODUCED_21_,X_INTRODUCED_22_],0);
constraint int_lin_ne(X_INTRODUCED_43_,[X_INTRODUCED_21_,X_INTRODUCED_23_],0);
constraint int_lin_ne(X_INTRODUCED_43_,[X_INTRODUCED_21_,X_INTRODUCED_24_],0);
constraint int_lin_ne(X_INTRODUCED_43_,[X_INTRODUCED_21_,X_INTRODUCED_25_],0);
constraint int_lin_ne(X_INTRODUCED_43_,[X_INTRODUCED_21_,X_INTRODUCED_26_],0);
constraint int_lin_ne(X_INTRODUCED_43_,[X_INTRODUCED_21_,X_INTRODUCED_27_],0);
constraint int_lin_ne(X_INTRODUCED_43_,[X_INTRODUCED_21_,X_INTRODUCED_28_],0);
constraint int_lin_ne(X_INTRODUCED_43_,[X_INTRODUCED_21_,X_INTRODUCED_29_],0);
constraint int_lin_ne(X_INTRODUCED_43_,[X_INTRODUCED_21_,X_INTRODUCED_30_],0);
constraint int_lin_ne(X_INTRODUCED_43_,[X_INTRODUCED_22_,X_INTRODUCED_23_],0);
constraint int_lin_ne(X_INTRODUCED_43_,[X_INTRODUCED_22_,X_INTRODUCED_24_],0);
constraint int_lin_ne(X_INTRODUCED_43_,[X_INTRODUCED_22_,X_INTRODUCED_25_],0);
constraint int_lin_ne(X_INTRODUCED_43_,[X_INTRODUCED_22_,X_INTRODUCED_26_],0);
constraint int_lin_ne(X_INTRODUCED_43_,[X_INTRODUCED_22_,X_INTRODUCED_27_],0);
constraint int_lin_ne(X_INTRODUCED_43_,[X_INTRODUCED_22_,X_INTRODUCED_28_],0);
constraint int_lin_ne(X_INTRODUCED_43_,[X_INTRODUCED_22_,X_INTRODUCED_29_],0);
constraint int_lin_ne(X_INTRODUCED_43_,[X_INTRODUCED_22_,X_INTRODUCED_30_],0);
constraint int_lin_ne(X_INTRODUCED_43_,[X_INTRODUCED_23_,X_INTRODUCED_24_],0);
constraint int_lin_ne(X_INTRODUCED_43_,[X_INTRODUCED_23_,X_INTRODUCED_25_],0);
constraint int_lin_ne(X_INTRODUCED_43_,[X_INTRODUCED_23_,X_INTRODUCED_26_],0);
constraint int_lin_ne(X_INTRODUCED_43_,[X_INTRODUCED_23_,X_INTRODUCED_27_],0);
constraint int_lin_ne(X_INTRODUCED_43_,[X_INTRODUCED_23_,X_INTRODUCED_28_],0);
constraint int_lin_ne(X_INTRODUCED_43_,[X_INTRODUCED_23_,X_INTRODUCED_29_],0);
constraint int_lin_ne(X_INTRODUCED_43_,[X_INTRODUCED_23_,X_INTRODUCED_30_],0);
constraint int_lin_ne(X_INTRODUCED_43_,[X_INTRODUCED_24_,X_INTRODUCED_25_],0);
constraint int_lin_ne(X_INTRODUCED_43_,[X_INTRODUCED_24_,X_INTRODUCED_26_],0);
constraint int_lin_ne(X_INTRODUCED_43_,[X_INTRODUCED_24_,X_INTRODUCED_27_],0);
constraint int_lin_ne(X_INTRODUCED_43_,[X_INTRODUCED_24_,X_INTRODUCED_28_],0);
constraint int_lin_ne(X_INTRODUCED_43_,[X_INTRODUCED_24_,X_INTRODUCED_29_],0);
constraint int_lin_ne(X_INTRODUCED_43_,[X_INTRODUCED_24_,X_INTRODUCED_30_],0);
constraint int_lin_ne(X_INTRODUCED_43_,[X_INTRODUCED_25_,X_INTRODUCED_26_],0);
constraint int_lin_ne(X_INTRODUCED_43_,[X_INTRODUCED_25_,X_INTRODUCED_27_],0);
constraint int_lin_ne(X_INTRODUCED_43_,[X_INTRODUCED_25_,X_INTRODUCED_28_],0);
constraint int_lin_ne(X_INTRODUCED_43_,[X_INTRODUCED_25_,X_INTRODUCED_29_],0);
constraint int_lin_ne(X_INTRODUCED_43_,[X_INTRODUCED_25_,X_INTRODUCED_30_],0);
constraint int_lin_ne(X_INTRODUCED_43_,[X_INTRODUCED_26_,X_INTRODUCED_27_],0);
constraint int_lin_ne(X_INTRODUCED_43_,[X_INTRODUCED_26_,X_INTRODUCED_28_],0);
constraint int_lin_ne(X_INTRODUCED_43_,[X_INTRODUCED_26_,X_INTRODUCED_29_],0);
constraint int_lin_ne(X_INTRODUCED_43_,[X_INTRODUCED_26_,X_INTRODUCED_30_],0);
constraint int_lin_ne(X_INTRODUCED_43_,[X_INTRODUCED_27_,X_INTRODUCED_28_],0);
constraint int_lin_ne(X_INTRODUCED_43_,[X_INTRODUCED_27_,X_INTRODUCED_29_],0);
constraint int_lin_ne(X_INTRODUCED_43_,[X_INTRODUCED_27_,X_INTRODUCED_30_],0);
constraint int_lin_ne(X_INTRODUCED_43_,[X_INTRODUCED_28_,X_INTRODUCED_29_],0);
constraint int_lin_ne(X_INTRODUCED_43_,[X_INTRODUCED_28_,X_INTRODUCED_30_],0);
constraint int_lin_ne(X_INTRODUCED_43_,[X_INTRODUCED_29_,X_INTRODUCED_30_],0);
constraint array_var_int_element(X_INTRODUCED_0_,y,X_INTRODUCED_44_):: defines_var(X_INTRODUCED_44_);
constraint array_var_int_element(X_INTRODUCED_44_,z,1);
constraint array_var_int_element(X_INTRODUCED_1_,y,X_INTRODUCED_46_):: defines_var(X_INTRODUCED_46_);
constraint array_var_int_element(X_INTRODUCED_46_,z,2);
constraint array_var_int_element(X_INTRODUCED_2_,y,X_INTRODUCED_48_):: defines_var(X_INTRODUCED_48_);
constraint array_var_int_element(X_INTRODUCED_48_,z,3);
constraint array_int_element(X_INTRODUCED_0_,X_INTRODUCED_50_,X_INTRODUCED_51_):: defines_var(X_INTRODUCED_51_);
constraint array_int_element(X_INTRODUCED_54_,X_INTRODUCED_52_,X_INTRODUCED_55_):: defines_var(X_INTRODUCED_55_);
constraint array_int_element(X_INTRODUCED_57_,X_INTRODUCED_56_,X_INTRODUCED_58_):: defines_var(X_INTRODUCED_58_);
constraint array_int_element(X_INTRODUCED_1_,X_INTRODUCED_59_,X_INTRODUCED_60_):: defines_var(X_INTRODUCED_60_);
constraint array_int_element(X_INTRODUCED_61_,X_INTRODUCED_52_,X_INTRODUCED_62_):: defines_var(X_INTRODUCED_62_);
constraint array_int_element(X_INTRODUCED_63_,X_INTRODUCED_56_,X_INTRODUCED_64_):: defines_var(X_INTRODUCED_64_);
constraint array_int_element(X_INTRODUCED_2_,X_INTRODUCED_65_,X_INTRODUCED_66_):: defines_var(X_INTRODUCED_66_);
constraint array_int_element(X_INTRODUCED_67_,X_INTRODUCED_52_,X_INTRODUCED_68_):: defines_var(X_INTRODUCED_68_);
constraint array_int_element(X_INTRODUCED_69_,X_INTRODUCED_56_,X_INTRODUCED_70_):: defines_var(X_INTRODUCED_70_);
constraint int_lin_eq(X_INTRODUCED_72_,[total_score,X_INTRODUCED_51_,X_INTRODUCED_60_,X_INTRODUCED_66_,X_INTRODUCED_55_,X_INTRODUCED_62_,X_INTRODUCED_68_,X_INTRODUCED_58_,X_INTRODUCED_64_,X_INTRODUCED_70_],0):: defines_var(total_score);
constraint int_lin_eq([1,21,-1],[X_INTRODUCED_44_,X_INTRODUCED_0_,X_INTRODUCED_54_],21):: domain:: defines_var(X_INTRODUCED_54_);
constraint int_lin_eq([21,-1],[X_INTRODUCED_44_,X_INTRODUCED_57_],20):: defines_var(X_INTRODUCED_57_):: domain;
constraint int_lin_eq([1,21,-1],[X_INTRODUCED_46_,X_INTRODUCED_1_,X_INTRODUCED_61_],21):: defines_var(X_INTRODUCED_61_):: domain;
constraint int_lin_eq([21,-1],[X_INTRODUCED_46_,X_INTRODUCED_63_],19):: defines_var(X_INTRODUCED_63_):: domain;
constraint int_lin_eq([1,21,-1],[X_INTRODUCED_48_,X_INTRODUCED_2_,X_INTRODUCED_67_],21):: defines_var(X_INTRODUCED_67_):: domain;
constraint int_lin_eq([21,-1],[X_INTRODUCED_48_,X_INTRODUCED_69_],18):: defines_var(X_INTRODUCED_69_):: domain;
solve :: int_search(x,first_fail,indomain_min,complete) minimize total_score;
